NAME          
ROWS
 N  OBJ
 L  c1
 L  c2
 L  c3
COLUMNS
    MARKER    'MARKER'                 'INTORG'
    x[1]      c1        690
    x[1]      c2        495
    x[1]      c3        294
    x[1]      OBJ       -558
    x[2]      c1        76
    x[2]      c2        933
    x[2]      c3        646
    x[2]      OBJ       -503
    x[3]      c1        473
    x[3]      c2        838
    x[3]      c3        16
    x[3]      OBJ       -871
    x[4]      c1        271
    x[4]      c2        775
    x[4]      c3        585
    x[4]      OBJ       -416
    x[5]      c1        991
    x[5]      c2        358
    x[5]      c3        215
    x[5]      OBJ       -179
    x[6]      c1        2
    x[6]      c2        280
    x[6]      c3        980
    x[6]      OBJ       -62
    x[7]      c1        601
    x[7]      c2        419
    x[7]      c3        122
    x[7]      OBJ       -640
    x[8]      c1        512
    x[8]      c2        992
    x[8]      c3        604
    x[8]      OBJ       -827
    x[9]      c1        661
    x[9]      c2        275
    x[9]      c3        13
    x[9]      OBJ       -244
    x[10]     c1        192
    x[10]     c2        205
    x[10]     c3        862
    x[10]     OBJ       -991
    x[11]     c1        85
    x[11]     c2        533
    x[11]     c3        775
    x[11]     OBJ       -424
    x[12]     c1        29
    x[12]     c2        450
    x[12]     c3        575
    x[12]     OBJ       -584
    x[13]     c1        804
    x[13]     c2        746
    x[13]     c3        512
    x[13]     OBJ       -110
    x[14]     c1        343
    x[14]     c2        253
    x[14]     c3        261
    x[14]     OBJ       -815
    x[15]     c1        293
    x[15]     c2        760
    x[15]     c3        96
    x[15]     OBJ       -159
RHS
    rhs       c1        3012
    rhs       c2        4156
    rhs       c3        3278
RANGES
BOUNDS
 LO bounds    x[1]      0
 PL bounds    x[1]
 LO bounds    x[2]      0
 PL bounds    x[2]
 LO bounds    x[3]      0
 PL bounds    x[3]
 LO bounds    x[4]      0
 PL bounds    x[4]
 LO bounds    x[5]      0
 PL bounds    x[5]
 LO bounds    x[6]      0
 PL bounds    x[6]
 LO bounds    x[7]      0
 PL bounds    x[7]
 LO bounds    x[8]      0
 PL bounds    x[8]
 LO bounds    x[9]      0
 PL bounds    x[9]
 LO bounds    x[10]     0
 PL bounds    x[10]
 LO bounds    x[11]     0
 PL bounds    x[11]
 LO bounds    x[12]     0
 PL bounds    x[12]
 LO bounds    x[13]     0
 PL bounds    x[13]
 LO bounds    x[14]     0
 PL bounds    x[14]
 LO bounds    x[15]     0
 PL bounds    x[15]
ENDATA
